(set-logic QF_LIA)
(declare-fun x0 () Int)
(declare-fun x1 () Int)
(declare-fun x2 () Int)
(declare-fun x3 () Int)
(declare-fun x4 () Int)
(declare-fun x5 () Int)
(declare-fun x6 () Int)
(declare-fun x7 () Int)
(declare-fun x8 () Int)
(declare-fun x9 () Int)
(declare-fun A0 () Bool)
(declare-fun A1 () Bool)
(declare-fun A2 () Bool)
(declare-fun A3 () Bool)
(declare-fun A4 () Bool)
(declare-fun A5 () Bool)
(declare-fun A6 () Bool)
(declare-fun A7 () Bool)
(declare-fun A9 () Bool)
(assert (let ((.def_0 (* 1 x7))) (let ((.def_1 (< .def_0 (- 1)))) (let ((.def_2 (not .def_1))) (let ((.def_3 (not A2))) (let ((.def_4 (and .def_3 .def_2))) (let ((.def_5 (* 1 x1))) (let ((.def_6 (< .def_5 (- 1)))) (let ((.def_7 (and .def_6 A5))) (let ((.def_8 (not .def_7))) (let ((.def_9 (or .def_8 .def_4))) (let ((.def_10 (not A3))) (let ((.def_11 (or .def_10 .def_6))) (let ((.def_12 (not .def_11))) (let ((.def_13 (not A0))) (let ((.def_14 (* (- 1) x4))) (let ((.def_15 (* (- 1) x3))) (let ((.def_16 (+ .def_15 .def_14))) (let ((.def_17 (< .def_16 (- 1)))) (let ((.def_18 (not .def_17))) (let ((.def_19 (and .def_18 .def_13))) (let ((.def_20 (not .def_19))) (let ((.def_21 (or .def_20 .def_12))) (let ((.def_22 (not .def_21))) (let ((.def_23 (and .def_22 .def_9))) (let ((.def_24 (not A9))) (let ((.def_25 (not A7))) (let ((.def_26 (and .def_25 .def_24))) (let ((.def_27 (not .def_26))) (let ((.def_28 (or A3 A3))) (let ((.def_29 (not .def_28))) (let ((.def_30 (or .def_29 .def_27))) (let ((.def_31 (not .def_30))) (let ((.def_32 (and .def_24 A4))) (let ((.def_33 (or A3 A1))) (let ((.def_34 (not .def_33))) (let ((.def_35 (or .def_34 .def_32))) (let ((.def_36 (or .def_35 .def_31))) (let ((.def_37 (not .def_36))) (let ((.def_38 (or .def_37 .def_23))) (let ((.def_39 (not .def_38))) (let ((.def_40 (or A2 .def_3))) (let ((.def_41 (not .def_40))) (let ((.def_42 (not A6))) (let ((.def_43 (* (- 1) x1))) (let ((.def_44 (< .def_43 (- 1)))) (let ((.def_45 (and .def_44 .def_42))) (let ((.def_46 (or .def_45 .def_41))) (let ((.def_47 (not .def_46))) (let ((.def_48 (* 1 x3))) (let ((.def_49 (< .def_48 1))) (let ((.def_50 (not .def_49))) (let ((.def_51 (* (- 1) x5))) (let ((.def_52 (< .def_51 1))) (let ((.def_53 (and .def_52 .def_50))) (let ((.def_54 (or .def_3 A4))) (let ((.def_55 (and .def_54 .def_53))) (let ((.def_56 (not .def_55))) (let ((.def_57 (and .def_56 .def_47))) (let ((.def_58 (not A4))) (let ((.def_59 (* (- 1) x6))) (let ((.def_60 (< .def_59 1))) (let ((.def_61 (or .def_60 .def_58))) (let ((.def_62 (not .def_61))) (let ((.def_63 (not A5))) (let ((.def_64 (or .def_63 A3))) (let ((.def_65 (not .def_64))) (let ((.def_66 (or .def_65 .def_62))) (let ((.def_67 (not .def_66))) (let ((.def_68 (* 1 x8))) (let ((.def_69 (+ .def_0 .def_68))) (let ((.def_70 (< .def_69 1))) (let ((.def_71 (not .def_70))) (let ((.def_72 (* 1 x0))) (let ((.def_73 (+ .def_5 .def_72))) (let ((.def_74 (< .def_73 (- 1)))) (let ((.def_75 (= .def_74 .def_71))) (let ((.def_76 (not .def_75))) (let ((.def_77 (* (- 1) x7))) (let ((.def_78 (< .def_77 1))) (let ((.def_79 (not .def_78))) (let ((.def_80 (= .def_63 .def_79))) (let ((.def_81 (and .def_80 .def_76))) (let ((.def_82 (not .def_81))) (let ((.def_83 (or .def_82 .def_67))) (let ((.def_84 (and .def_83 .def_57))) (let ((.def_85 (and .def_84 .def_39))) (let ((.def_86 (<= x9 1))) (let ((.def_87 (<= 0 x9))) (let ((.def_88 (<= x8 1))) (let ((.def_89 (<= 0 x8))) (let ((.def_90 (<= x7 1))) (let ((.def_91 (<= 0 x7))) (let ((.def_92 (<= x6 1))) (let ((.def_93 (<= 0 x6))) (let ((.def_94 (<= x5 1))) (let ((.def_95 (<= 0 x5))) (let ((.def_96 (<= x4 1))) (let ((.def_97 (<= 0 x4))) (let ((.def_98 (<= x3 1))) (let ((.def_99 (<= 0 x3))) (let ((.def_100 (<= x2 1))) (let ((.def_101 (<= 0 x2))) (let ((.def_102 (<= x1 1))) (let ((.def_103 (<= 0 x1))) (let ((.def_104 (<= x0 1))) (let ((.def_105 (<= 0 x0))) (let ((.def_106 (and .def_105 .def_104 .def_103 .def_102 .def_101 .def_100 .def_99 .def_98 .def_97 .def_96 .def_95 .def_94 .def_93 .def_92 .def_91 .def_90 .def_89 .def_88 .def_87 .def_86 .def_85))) .def_106))))))))))))))))))))))))))))))))))))))))))))))))))))))))))))))))))))))))))))))))))))))))))))))))))))))))))))
(check-sat)
